2018/problems/formulublad/data/secret/knapsack-05.in
77 628
468 467775
166 989782
555 298409
565 27444
438 308987
526 475989
303 361054
18 718823
171 549377
498 875197
273 767284
416 305008
143 141809
492 511172
334 895413
262 25982
523 805517
618 357944
583 623592
404 35097
50 622302
128 325579
222 615656
120 492909
593 458623
131 277899
170 461677
231 110119
266 74259
166 346357
142 94128
520 809712
360 854089
21 135771
402 657876
54 937305
366 117605
358 900845
622 507050
328 686362
539 27815
199 438664
98 990137
201 346228
290 556217
224 3918
150 314090
387 600709
555 165342
138 123363
124 59452
347 305758
525 313861
220 73128
533 831790
282 566778
192 601788
261 354065
90 867793
397 378720
229 639685
431 986573
226 450016
583 548738
325 448627
470 872343
191 140417
470 74822
408 574999
296 959741
363 510416
143 893798
491 19164
240 227909
365 668865
450 845739
298 841773
