2018/problems/formulublad/data/secret/knapsack-05.ans
7 6019940
1 7 20 35 42 58 71 
